Route #1: 2 42 15 23 75 73 21 40
Route #2: 83 82 47 36 19 7 18 0 87 57 22 41 43 97 13
Route #3: 28 33 65 71 29 78 79 0 49 46 48 17 60 89
Route #4: 72 39 67 12 0 99 85 86 84 6 0 26 54 56 74 4 55 25 24 80 77
Route #5: 95 59 5 45 8 0 53 58
Route #6: 27 69 30 90 51 9 81 0 10 20 66 32 70 1
Route #7: 92 98 14 38 44 16 61 0 94 96 37 100 91 93
Route #8: 31 63 64 11 62 88 52 0 76 50 3 34 35 68
Cost: 14836
Optimal: True
